VALUE 1035
1 39
2 47
3 26
4 27
5 28
6 29
7 30
8 31
9 32
10 33
11 34
12 35
13 36
14 37
15 38
16 39
17 40
18 41
19 42
20 43
21 44
22 45
23 46
24 46
26 51
27 52
28 53
29 54
30 55
31 56
32 57
33 58
34 59
35 60
36 61
37 62
38 63
39 64
40 65
41 66
42 67
43 68
44 69
45 70
46 71
47 71
48 93
49 94
50 73
51 74
52 75
53 76
54 77
55 78
56 79
57 80
58 81
59 82
60 83
61 84
62 85
63 86
64 87
65 88
66 89
67 90
68 91
69 92
70 93
71 93
73 98
74 99
75 100
76 101
77 102
78 103
79 104
80 105
81 106
82 107
83 108
84 109
85 110
86 111
87 112
88 113
89 114
90 115
91 116
92 117
93 118
94 118
95 140
96 141
97 120
98 121
99 122
100 123
101 124
102 125
103 126
104 127
105 128
106 129
107 130
108 131
109 132
110 133
111 134
112 135
113 136
114 137
115 138
116 139
117 140
118 140
120 145
121 146
122 147
123 148
124 149
125 150
126 151
127 152
128 153
129 154
130 155
131 156
132 157
133 158
134 159
135 160
136 161
137 162
138 163
139 164
140 165
141 165
142 187
143 188
144 167
145 168
146 169
147 170
148 171
149 172
150 173
151 174
152 175
153 176
154 177
155 178
156 179
157 180
158 181
159 182
160 183
161 184
162 185
163 186
164 187
165 187
167 192
168 193
169 194
170 195
171 196
172 197
173 198
174 199
175 200
176 201
177 202
178 203
179 204
180 205
181 206
182 207
183 208
184 209
185 210
186 211
187 212
188 212
189 234
190 235
191 214
192 215
193 216
194 217
195 218
196 219
197 220
198 221
199 222
200 223
201 224
202 225
203 226
204 227
205 228
206 229
207 230
208 231
209 232
210 233
211 234
212 234
214 239
215 240
216 241
217 242
218 243
219 244
220 245
221 246
222 247
223 248
224 249
225 250
226 251
227 252
228 253
229 254
230 255
231 256
232 257
233 258
234 259
235 259
236 281
237 282
238 261
239 262
240 263
241 264
242 265
243 266
244 267
245 268
246 269
247 270
248 271
249 272
250 273
251 274
252 275
253 276
254 277
255 278
256 279
257 280
258 281
259 281
261 286
262 287
263 288
264 289
265 290
266 291
267 292
268 293
269 294
270 295
271 296
272 297
273 298
274 299
275 300
276 301
277 302
278 303
279 304
280 305
281 306
282 306
283 328
284 329
285 308
286 309
287 310
288 311
289 312
290 313
291 314
292 315
293 316
294 317
295 318
296 319
297 320
298 321
299 322
300 323
301 324
302 325
303 326
304 327
305 328
306 328
308 333
309 334
310 335
311 336
312 337
313 338
314 339
315 340
316 341
317 342
318 343
319 344
320 345
321 346
322 347
323 348
324 349
325 350
326 351
327 352
328 353
329 353
330 375
331 376
332 355
333 356
334 357
335 358
336 359
337 360
338 361
339 362
340 363
341 364
342 365
343 366
344 367
345 368
346 369
347 370
348 371
349 372
350 373
351 374
352 375
353 375
355 380
356 381
357 382
358 383
359 384
360 385
361 386
362 387
363 388
364 389
365 390
366 391
367 392
368 393
369 394
370 395
371 396
372 397
373 398
374 399
375 400
376 400
377 422
378 423
379 402
380 403
381 404
382 405
383 406
384 407
385 408
386 409
387 410
388 411
389 412
390 413
391 414
392 415
393 416
394 417
395 418
396 419
397 420
398 421
399 422
400 422
402 427
403 428
404 429
405 430
406 431
407 432
408 433
409 434
410 435
411 436
412 437
413 438
414 439
415 440
416 441
417 442
418 443
419 444
420 445
421 446
422 447
423 447
424 469
425 470
426 449
427 450
428 451
429 452
430 453
431 454
432 455
433 456
434 457
435 458
436 459
437 460
438 461
439 462
440 463
441 464
442 465
443 466
444 467
445 468
446 469
447 469
449 474
450 475
451 476
452 477
453 478
454 479
455 480
456 481
457 482
458 483
459 484
460 485
461 486
462 487
463 488
464 489
465 490
466 491
467 492
468 493
469 494
470 494
471 516
472 517
473 496
474 497
475 498
476 499
477 500
478 501
479 502
480 503
481 504
482 505
483 506
484 507
485 508
486 509
487 510
488 511
489 512
490 513
491 514
492 515
493 516
494 516
496 521
497 522
498 523
499 524
500 525
501 526
502 527
503 528
504 529
505 530
506 531
507 532
508 533
509 534
510 535
511 536
512 537
513 538
514 539
515 540
516 541
517 541
518 563
519 564
520 543
521 544
522 545
523 546
524 547
525 548
526 549
527 550
528 551
529 552
530 553
531 554
532 555
533 556
534 557
535 558
536 559
537 560
538 561
539 562
540 563
541 563
543 568
544 569
545 570
546 571
547 572
548 573
549 574
550 575
551 576
552 577
553 578
554 579
555 580
556 581
557 582
558 583
559 584
560 585
561 586
562 587
563 588
564 588
565 610
566 611
567 590
568 591
569 592
570 593
571 594
572 595
573 596
574 597
575 598
576 599
577 600
578 601
579 602
580 603
581 604
582 605
583 606
584 607
585 608
586 609
587 610
588 610
590 615
591 616
592 617
593 618
594 619
595 620
596 621
597 622
598 623
599 624
600 625
601 626
602 627
603 628
604 629
605 630
606 631
607 632
608 633
609 634
610 635
611 635
612 657
613 658
614 637
615 638
616 639
617 640
618 641
619 642
620 643
621 644
622 645
623 646
624 647
625 648
626 649
627 650
628 651
629 652
630 653
631 654
632 655
633 656
634 657
635 657
637 662
638 663
639 664
640 665
641 666
642 667
643 668
644 669
645 670
646 671
647 672
648 673
649 674
650 675
651 676
652 677
653 678
654 679
655 680
656 681
657 682
658 682
659 704
660 705
661 684
662 685
663 686
664 687
665 688
666 689
667 690
668 691
669 692
670 693
671 694
672 695
673 696
674 697
675 698
676 699
677 700
678 701
679 702
680 703
681 704
682 704
684 709
685 710
686 711
687 712
688 713
689 714
690 715
691 716
692 717
693 718
694 719
695 720
696 721
697 722
698 723
699 724
700 725
701 726
702 727
703 728
704 729
705 729
706 751
707 752
708 731
709 732
710 733
711 734
712 735
713 736
714 737
715 738
716 739
717 740
718 741
719 742
720 743
721 744
722 745
723 746
724 747
725 748
726 749
727 750
728 751
729 752
731 756
732 757
733 758
734 759
735 760
736 761
737 762
738 763
739 764
740 765
741 766
742 767
743 768
744 769
745 770
746 771
747 772
748 773
749 774
750 775
751 776
752 776
753 798
754 799
755 778
756 779
757 780
758 781
759 782
760 783
761 784
762 785
763 786
764 787
765 788
766 789
767 790
768 791
769 792
770 793
771 794
772 795
773 796
774 797
775 798
776 798
778 803
779 804
780 805
781 806
782 807
783 808
784 809
785 810
786 811
787 812
788 813
789 814
790 815
791 816
792 817
793 818
794 819
795 820
796 821
797 822
798 823
799 823
800 845
801 846
802 825
803 826
804 827
805 828
806 829
807 830
808 831
809 832
810 833
811 834
812 835
813 836
814 837
815 838
816 839
817 840
818 841
819 842
820 843
821 844
822 845
823 845
825 850
826 851
827 852
828 853
829 854
830 855
831 856
832 857
833 858
834 859
835 860
836 861
837 862
838 863
839 864
840 865
841 866
842 867
843 868
844 869
845 870
846 870
847 892
848 893
849 872
850 873
851 874
852 875
853 876
854 877
855 878
856 879
857 880
858 881
859 882
860 883
861 884
862 885
863 886
864 887
865 888
866 889
867 890
868 891
869 892
870 892
872 897
873 898
874 899
875 900
876 901
877 902
878 903
879 904
880 905
881 906
882 907
883 908
884 909
885 910
886 911
887 912
888 913
889 914
890 915
891 916
892 917
893 917
894 939
895 940
896 919
897 920
898 921
899 922
900 923
901 924
902 925
903 926
904 927
905 928
906 929
907 930
908 931
909 932
910 933
911 934
912 935
913 936
914 937
915 938
916 939
917 939
919 944
920 945
921 946
922 947
923 948
924 949
925 950
926 951
927 952
928 953
929 954
930 955
931 956
932 957
933 958
934 959
935 960
936 961
937 962
938 963
939 964
940 964
941 986
942 987
943 966
944 967
945 968
946 969
947 970
948 971
949 972
950 973
951 974
952 975
953 976
954 977
955 978
956 979
957 980
958 981
959 982
960 983
961 984
962 985
963 986
964 986
966 990
966 991
967 992
967 991
968 992
968 993
969 993
969 994
970 994
970 995
971 995
971 996
972 996
972 997
973 997
973 998
974 998
974 999
975 999
975 1000
976 1000
976 1001
977 1001
977 1002
978 1002
978 1003
979 1003
979 1004
980 1004
980 1005
981 1005
981 1006
982 1006
982 1007
983 1008
983 1007
984 1008
984 1009
985 1009
985 1010
986 1010
986 1011
986 988
987 1011
987 989
991 1013
992 1014
993 1015
994 1016
995 1017
996 1018
997 1019
998 1020
999 1021
1000 1022
1001 1023
1002 1024
1003 1025
1004 1026
1005 1027
1006 1028
1007 1029
1008 1030
1009 1031
1010 1032
1011 1033
1011 1034
1013 1037
1014 1038
1015 1039
1016 1040
1017 1041
1018 1042
1019 1043
1020 1044
1021 1045
1022 1046
1023 1047
1024 1048
1025 1049
1026 1050
1027 1051
1028 1052
1029 1053
1030 1054
1031 1055
1032 1056
1033 1057
1033 1058
1033 1035
1034 1036